SAT
13 4 44 11 103 27 87 -50 31 -92 -134 12 55 -74 -98 23 -21 -26 58 119 73 129 -69 -94 -51 5 102 41 133 139 -85 -3 82 -42 -86 97 146 -59 108 144 -39 -120 -71 -33 18 -63 46 36 -28 -17 43 56 38 -16 -7 149 32 14 67 117 20 -83 -93 -124 142 -22 110 79 53 -30 -137 -96 -62 -136 115 101 19 -84 -145 1 100 -123 -131 132 127 -147 -15 -2 -80 -121 116 -65 -99 -90 -148 135 72 -125 24 -89 -109 91 25 70 -113 -37 -140 -10 107 -76 -88 47 45 -35 -75 61 -105 66 60 -95 -8 -81 34 -122 -52 104 -143 -114 141 -150 -118 9 130 64 -111 78 -6 -40 138 -128 -68 -29 126 -57 -54 -106 112 -77 -48 49 0
